CMPL model generation - running

CMPL version: 1.11.0
Authors: Thomas Schleiff, Mike Steglich
Distributed under the GPLv3 

create model instance ...
write model instance ...
CMPL model generation - finished

Solver - running


Welcome to IBM(R) ILOG(R) CPLEX(R) Interactive Optimizer 12.7.1.0
  with Simplex, Mixed Integer & Barrier Optimizers
5725-A06 5725-A29 5724-Y48 5724-Y49 5724-Y54 5724-Y55 5655-Y21
Copyright IBM Corp. 1988, 2017.  All Rights Reserved.

Type 'help' for a list of available commands.
Type 'help' followed by a command name for more
information on commands.

CPLEX> Specified objective sense: MINIMIZE
Selected objective  name:  line[1]
Selected RHS        name:  RHS
Selected bound      name:  BOUND
Problem '/tmp/cmpl.T24471.mps' read.
Read time = 0.08 sec. (10.13 ticks)
CPLEX> CPXPARAM_Read_APIEncoding                        "UTF-8"
Tried aggregator 3 times.
MIP Presolve eliminated 23902 rows and 37380 columns.
MIP Presolve modified 425 coefficients.
Aggregator did 845 substitutions.
Reduced MIP has 3175 rows, 4230 columns, and 12512 nonzeros.
Reduced MIP has 4020 binaries, 0 generals, 0 SOSs, and 0 indicators.
Presolve time = 0.10 sec. (50.48 ticks)
Found incumbent of value 2121.140406 after 0.18 sec. (84.76 ticks)
Probing fixed 19 vars, tightened 0 bounds.
Probing time = 0.02 sec. (5.52 ticks)
Tried aggregator 1 time.
MIP Presolve eliminated 0 rows and 19 columns.
MIP Presolve modified 102 coefficients.
Reduced MIP has 3175 rows, 4211 columns, and 12474 nonzeros.
Reduced MIP has 4211 binaries, 0 generals, 0 SOSs, and 0 indicators.
Presolve time = 0.02 sec. (10.52 ticks)
Probing time = 0.01 sec. (2.87 ticks)
Clique table members: 7673.
MIP emphasis: balance optimality and feasibility.
MIP search method: dynamic search.
Parallel mode: none, using 1 thread.
Root relaxation solution time = 0.01 sec. (8.41 ticks)

        Nodes                                         Cuts/
   Node  Left     Objective  IInf  Best Integer    Best Bound    ItCnt     Gap

*     0+    0                         2121.1404       -4.0389           100.19%
*     0     0      integral     0      390.3862      390.3862      329    0.00%
Elapsed time = 0.26 sec. (121.84 ticks, tree = 0.00 MB, solutions = 2)

Root node processing (before b&c):
  Real time             =    0.26 sec. (123.38 ticks)
Sequential b&c:
  Real time             =    0.00 sec. (0.00 ticks)
                          ------------
Total (root+branch&cut) =    0.26 sec. (123.38 ticks)

Solution pool: 2 solutions saved.

MIP - Integer optimal solution:  Objective =  3.9038620800e+02
Solution time =    0.26 sec.  Iterations = 329  Nodes = 0
Deterministic time = 123.50 ticks  (470.15 ticks/sec)

CPLEX> Incumbent solution written to file '/tmp/cmpl.T24471.gsol'.
CPLEX> 
CMPL: Time used for model generation: 1 seconds
CMPL: Time used for solving the model: 1 seconds


Solution written to ASCII file: results/output_generated_conf_0.7/2016-05-02-5/fair-nonlinear.sol

Solver - finished
